OUTCAR.0012.+1.out 1.0e-02 
   1.00000000000000     
     3.8889457900000002   -0.0000001200000000    0.0000190600000000
    -1.9444729999999999    3.3679257800000002   -0.0000190600000000
     0.0000954800000000   -0.0000551200000000    5.9311026200000008
   Si   H 
     2     2
Cartesian
  -0.0028686578    2.2412557819    2.8420434600
   1.9416041835    1.1186143909    2.1234229300
  -0.0028518772    2.2412768187    4.3426384597
   1.9416301356    1.1186413510    0.6077640805
