NWRITE = 3
ENCUT = 550
IBRION = 5
POTIM = 0.015
ICHARG = 2
ISMEAR = 0
SIGMA = 0.1
KPAR=8
