OUTCAR.0012.+1.out 1.0e-02              
   1.00000000000000     
     3.8889457900000002   -0.0000001200000000    0.0000190600000000
    -1.9444729999999999    3.3679257800000002   -0.0000190600000000
     0.0000954800000000   -0.0000551200000000    5.9311026200000008
   Si   H 
     2     2
Direct
  0.3319898649212760  0.6654785112254658  0.4791773129519044
  0.6653252441820143  0.3321433658373607  0.3580137987147793
  0.3319931616609253  0.6654888981534057  0.7321817028565789
  0.6653401442481490  0.3321471471276314  0.0999405621212255
 
  0.00000000E+00  0.00000000E+00  0.00000000E+00
  0.00000000E+00  0.00000000E+00  0.00000000E+00
  0.00000000E+00  0.00000000E+00  0.00000000E+00
  0.00000000E+00  0.00000000E+00  0.00000000E+00
