ISTART = 0
LEPSILON = .TRUE.

NWRITE = 3
ENCUT = 550
IBRION = 5
POTIM =1
ICHARG = 2
ISIF = 3
ISMEAR = 0
NELM = 200
NSW = 2000
SIGMA = 0.1
KPAR=8
