IBRION = 7
LEPSILON = .TRUE.
NSW = 1
NWRITE = 3
ISYM = 0
LREAL = .FALSE.

EDIFF = 1e-5
EDIFFG = -0.01
ENCUT = 550
ISIF = 3
ISMEAR = -5
SIGMA = 0.1
KPAR=8
