Si  H                                   
   1.00000000000000     
     3.8889457900000002   -0.0000001200000000    0.0000190600000000
    -1.9444729999999999    3.3679257800000002   -0.0000190600000000
     0.0000954800000000   -0.0000551200000000   18.9311026200000008
   Si   H 
     2     2
Direct
  0.3333327599999976  0.6666666599999971  0.1501708799999975
  0.6666666599999971  0.3333327400000030  0.1122105500000004
  0.3333301799999973  0.6666666599999971  0.2294370700000030
  0.6666666599999971  0.3333301999999989  0.0329412500000004
 
  0.00000000E+00  0.00000000E+00  0.00000000E+00
  0.00000000E+00  0.00000000E+00  0.00000000E+00
  0.00000000E+00  0.00000000E+00  0.00000000E+00
  0.00000000E+00  0.00000000E+00  0.00000000E+00
