SYMPREC = 1e-4
EDIFF = 1e-5
EDIFFG = -0.01
ENCUT = 550
IBRION = 2
ISIF = 3
ISMEAR = -5
NELM = 200
NSW = 2000
SIGMA = 0.1
NPAR=2
