Si  H
 1.0000000000000000
     3.8889457900000002   -0.0000001200000000    0.0000190600000000
    -1.9444729999999999    3.3679257800000002   -0.0000190600000000
     0.0000954800000000   -0.0000551200000000   18.9311026200000008
   2   2
Cartesian
  0.0000120516165230  2.2452755134616580  2.8428939864715721
  1.9444847016576554  1.1226336633185221  2.1242757904411564
  0.0000095864722059  2.2452711443095752  4.3434903636088142
  1.9444820719863114  1.1226294781108568  0.6236205375740026
