Si  H                                   
   1.00000000000000     
     3.8889457900000002   -0.0000001200000000    0.0000190600000000
    -1.9444729999999999    3.3679257800000002   -0.0000190600000000
     0.0000954800000000   -0.0000551200000000    5.9311026200000008
   Si   H 
     2     2
Direct
  0.3333273722904053  0.6666720469174550  0.4793207135608597
  0.6666626342004776  0.3333367652076191  0.3581575928372800
  0.3333219484420269  0.6666748903477071  0.7323253357089783
  0.6666654781604251  0.3333313816658077  0.1051430440814229
 
  0.00000000E+00  0.00000000E+00  0.00000000E+00
  0.00000000E+00  0.00000000E+00  0.00000000E+00
  0.00000000E+00  0.00000000E+00  0.00000000E+00
  0.00000000E+00  0.00000000E+00  0.00000000E+00
